
List of user-set options:

                                    Name   Value                used
                         derivative_test = first-order           yes
                        file_print_level = 5                     yes
                   hessian_approximation = limited-memory        yes
                                  hsllib = /home/ggs24/packages/ThirdParty-HSL/.libs/libcoinhsl.so  yes
                           linear_solver = ma97                  yes
                                max_iter = 500                   yes
                             output_file = IPOPT.out             yes
                             print_level = 0                     yes
                      print_user_options = yes                   yes
                                      sb = yes                   yes
This is Ipopt version 3.14.7, running with linear solver ma97.

Starting derivative checker for first derivatives.

* jac_g [   50,    2] = -9.8715198574644716e-05 v  ~ -9.8732188863870224e-05  [ 1.699e-04]
* jac_g [   78,    4] = -1.4139967420439856e-04 v  ~ -1.4137579995576743e-04  [ 1.689e-04]
* jac_g [  128,    9] =  1.2388119536545391e-04 v  ~  1.2390837986480622e-04  [ 2.194e-04]
* jac_g [  129,    9] =  4.8485464318658699e-16 v  ~  1.0557973744444974e-08  [ 1.056e-04]
* jac_g [  269,   16] =  2.7755575615628914e-16 v  ~ -2.1716139734420978e-08  [ 2.172e-04]
* jac_g [  335,   16] = -4.8849813083506892e-16 v  ~  1.8287275565828192e-08  [ 1.829e-04]
* jac_g [  336,   16] = -8.8817841970012528e-17 v  ~ -3.2002732240199339e-08  [ 3.200e-04]

Derivative checker detected 7 error(s).

Number of nonzeros in equality constraint Jacobian...:       68
Number of nonzeros in inequality constraint Jacobian.:     8568
Number of nonzeros in Lagrangian Hessian.............:        0

Total number of variables............................:       17
                     variables with only lower bounds:        1
                variables with lower and upper bounds:        0
                     variables with only upper bounds:        0
Total number of equality constraints.................:        4
Total number of inequality constraints...............:      504
        inequality constraints with only lower bounds:        0
   inequality constraints with lower and upper bounds:      504
        inequality constraints with only upper bounds:        0

iter    objective    inf_pr   inf_du lg(mu)  ||d||  lg(rg) alpha_du alpha_pr  ls
   0  1.7734257e+01 9.24e-01 0.00e+00   0.0 0.00e+00    -  0.00e+00 0.00e+00   0
   1  1.7503180e+01 9.03e-01 1.56e+00  -1.7 1.03e+01    -  1.01e-02 2.24e-02f  1
   2  1.6649025e+01 8.20e-01 3.58e+01  -1.4 1.01e+01    -  8.87e-03 8.45e-02f  1
   3  1.6122802e+01 7.61e-01 3.45e+01  -1.9 7.44e+00    -  1.32e-01 7.08e-02h  1
   4  1.5095619e+01 6.35e-01 2.84e+01  -1.7 6.60e+00    -  2.53e-01 1.56e-01f  1
   5  1.4689079e+01 5.79e-01 2.60e+01  -2.0 4.77e+00    -  9.20e-02 8.53e-02h  1
   6  1.4109158e+01 4.93e-01 5.63e+01  -2.0 4.05e+00    -  2.50e-02 1.43e-01h  1
   7  1.3050264e+01 3.12e-01 3.72e+01  -1.9 3.12e+00    -  3.28e-01 3.40e-01h  1
   8  1.3018935e+01 3.06e-01 1.15e+03  -1.6 1.68e+00    -  4.18e-01 1.86e-02h  1
   9  1.2764914e+01 2.62e-01 2.58e+03  -2.5 1.80e+00    -  2.20e-01 1.41e-01h  1
iter    objective    inf_pr   inf_du lg(mu)  ||d||  lg(rg) alpha_du alpha_pr  ls
  10  1.2430883e+01 2.03e-01 4.81e+03  -2.0 1.56e+00    -  4.76e-01 2.14e-01h  1
  11  1.1594951e+01 2.57e-02 2.63e+03  -2.3 1.03e+00    -  5.86e-01 8.09e-01h  1
  12  1.1594142e+01 2.54e-02 3.44e+02  -7.5 8.03e-01    -  8.22e-02 1.18e-02h  1
  13  1.1577063e+01 7.39e-03 6.24e+03  -2.0 5.03e-01    -  2.97e-01 8.15e-01h  1
  14  1.1437861e+01 8.88e-16 9.44e+02  -2.0 2.55e-01    -  3.35e-01 9.90e-01h  1
  15  1.1389069e+01 0.00e+00 2.05e+02  -7.8 4.90e-01    -  7.01e-01 1.00e+00h  1
  16  1.1397043e+01 8.88e-16 7.27e+04  -2.4 2.93e-01    -  8.24e-01 1.00e+00h  1
  17  1.1373825e+01 4.44e-16 1.19e-01  -3.1 3.64e-01    -  1.00e+00 1.00e+00h  1
  18  1.1348856e+01 2.69e-03 9.88e+02  -3.1 4.18e-01    -  8.88e-01 1.00e+00h  1
  19  1.1318815e+01 1.29e-03 4.77e+02  -3.5 2.17e-01    -  1.00e+00 9.92e-01h  1
iter    objective    inf_pr   inf_du lg(mu)  ||d||  lg(rg) alpha_du alpha_pr  ls
  20  1.1301368e+01 2.73e-04 5.78e-02  -4.0 1.12e-01    -  1.00e+00 1.00e+00h  1
  21  1.1292224e+01 9.41e-05 1.07e+03  -4.7 1.53e-01    -  1.00e+00 8.40e-01h  1
  22  1.1291371e+01 1.37e-05 3.99e+02  -4.8 4.31e-02    -  1.00e+00 7.80e-01h  1
  23  1.1290853e+01 7.90e-06 2.36e+02  -5.3 1.82e-02    -  1.00e+00 8.29e-01h  1
  24  1.1291222e+01 0.00e+00 1.43e+01  -4.9 4.29e-03    -  9.80e-01 1.00e+00h  1
  25  1.1290864e+01 1.92e-07 6.18e+02  -6.4 4.67e-03    -  1.00e+00 4.72e-01h  1
  26  1.1290722e+01 1.10e-06 1.05e+02  -5.8 7.27e-03    -  8.72e-01 8.20e-01h  1
  27  1.1290695e+01 1.03e-08 4.02e+01  -6.2 5.55e-03    -  1.00e+00 7.68e-01h  1
  28  1.1290689e+01 8.88e-16 2.39e+01  -6.6 4.16e-03    -  1.00e+00 7.05e-01h  1
  29  1.1290687e+01 9.46e-08 1.65e+01  -7.7 7.00e-04    -  1.00e+00 6.42e-01h  1
iter    objective    inf_pr   inf_du lg(mu)  ||d||  lg(rg) alpha_du alpha_pr  ls
  30  1.1290686e+01 4.44e-16 3.96e-06  -7.7 4.63e-04    -  1.00e+00 1.00e+00h  1
  31  1.1290686e+01 5.48e-11 2.22e-06  -9.4 2.82e-04    -  1.00e+00 9.36e-01h  1
  32  1.1290686e+01 1.45e-09 4.32e-07 -11.0 1.98e-04    -  1.00e+00 9.98e-01h  1
  33  1.1290686e+01 4.21e-11 1.66e-08 -11.0 4.00e-05    -  1.00e+00 1.00e+00h  1
  34  1.1290686e+01 8.88e-16 2.67e-09 -11.0 2.64e-06    -  1.00e+00 1.00e+00h  1

Number of Iterations....: 34

                                   (scaled)                 (unscaled)
Objective...............:   1.1290685645452298e+01    1.1290685645452298e+01
Dual infeasibility......:   2.6749175791040969e-09    2.6749175791040969e-09
Constraint violation....:   8.8817841970012523e-16    8.8817841970012523e-16
Variable bound violation:   0.0000000000000000e+00    0.0000000000000000e+00
Complementarity.........:   1.0339634748735647e-11    1.0339634748735647e-11
Overall NLP error.......:   2.6749175791040969e-09    2.6749175791040969e-09


Number of objective function evaluations             = 35
Number of objective gradient evaluations             = 35
Number of equality constraint evaluations            = 35
Number of inequality constraint evaluations          = 35
Number of equality constraint Jacobian evaluations   = 35
Number of inequality constraint Jacobian evaluations = 35
Number of Lagrangian Hessian evaluations             = 0
Total seconds in IPOPT                               = 0.820

EXIT: Optimal Solution Found.
